ampl/fill_a_pix2.dat
# Puzzle 2 from 
# http://www.conceptispuzzles.com/index.aspx?uri=puzzle/fill-a-pix/rules

param n := 10;
param puzzle: 1 2 3 4 5 6 7 8 9 10 :=
 1  0 . . . . . 3 4 . 3 
 2  . . . 4 . . . 7 . . 
 3  . . 5 . 2 2 . 4 . 3 
 4  4 . 6 6 . 2 . . . . 
 5  . . . . 3 3 . . 3 . 
 6  . . 8 . . 4 . . . . 
 7  . 9 . 7 . . . . 5 . 
 8  . . . 7 5 . . 3 3 0 
 9  . . . . . . . . . . 
10  4 4 . . 2 3 3 4 3 .
;
