minizinc/fill_a_pix2.dzn
% Puzzle 2 from 
% http://www.conceptispuzzles.com/index.aspx?uri=puzzle/fill-a-pix/rules
% 
n = 10;
puzzle = array2d(1..n, 1..n, 
[
  0,X,X,X,X,X,3,4,X,3,
  X,X,X,4,X,X,X,7,X,X,
  X,X,5,X,2,2,X,4,X,3,
  4,X,6,6,X,2,X,X,X,X,
  X,X,X,X,3,3,X,X,3,X,
  X,X,8,X,X,4,X,X,X,X,
  X,9,X,7,X,X,X,X,5,X,
  X,X,X,7,5,X,X,3,3,0,
  X,X,X,X,X,X,X,X,X,X,
  4,4,X,X,2,3,3,4,3,X
]);


